c nombre: 10
c densidad: 0.1
p edges 100 456
e 1 5
e 1 9
e 1 10
e 1 30
e 1 42
e 1 58
e 1 61
e 1 69
e 2 25
e 2 28
e 2 43
e 2 49
e 2 73
e 2 82
e 3 8
e 3 13
e 3 16
e 3 28
e 3 34
e 3 35
e 3 43
e 3 46
e 3 50
e 3 78
e 4 18
e 4 52
e 4 59
e 4 71
e 4 80
e 4 84
e 4 88
e 4 89
e 4 93
e 5 6
e 5 18
e 5 34
e 5 63
e 5 68
e 5 79
e 6 10
e 6 31
e 6 53
e 6 62
e 6 70
e 6 77
e 6 78
e 6 85
e 6 86
e 7 28
e 7 42
e 7 44
e 7 94
e 8 14
e 8 26
e 8 35
e 8 46
e 8 50
e 8 64
e 8 66
e 8 70
e 8 72
e 8 88
e 8 92
e 8 93
e 8 98
e 9 13
e 9 27
e 9 45
e 9 56
e 9 86
e 9 100
e 10 13
e 10 25
e 10 65
e 10 72
e 10 74
e 10 82
e 10 84
e 10 96
e 11 22
e 11 25
e 11 33
e 11 36
e 11 55
e 11 70
e 11 79
e 11 80
e 11 84
e 11 92
e 11 97
e 11 99
e 12 19
e 12 20
e 12 22
e 12 30
e 12 31
e 12 72
e 13 31
e 13 40
e 13 46
e 13 48
e 13 54
e 13 57
e 13 58
e 13 80
e 14 15
e 14 20
e 14 25
e 14 30
e 14 49
e 14 55
e 14 71
e 14 83
e 14 89
e 15 25
e 15 43
e 15 64
e 15 68
e 16 44
e 16 59
e 16 63
e 16 66
e 17 18
e 17 19
e 17 46
e 17 53
e 17 58
e 17 62
e 17 73
e 17 76
e 17 87
e 18 43
e 18 69
e 18 71
e 18 79
e 18 85
e 18 91
e 18 93
e 19 34
e 19 38
e 19 40
e 19 41
e 19 43
e 19 79
e 19 89
e 19 95
e 19 98
e 20 21
e 20 31
e 20 32
e 20 37
e 20 48
e 20 57
e 20 75
e 20 86
e 20 90
e 21 30
e 21 47
e 21 59
e 21 60
e 21 73
e 21 84
e 21 86
e 22 28
e 22 40
e 22 41
e 22 42
e 22 50
e 22 61
e 22 65
e 22 67
e 22 78
e 22 88
e 23 26
e 23 31
e 23 35
e 23 45
e 23 75
e 23 82
e 23 84
e 23 94
e 23 98
e 23 100
e 24 26
e 24 29
e 24 42
e 24 74
e 24 79
e 24 82
e 24 89
e 24 93
e 24 100
e 25 33
e 25 35
e 25 38
e 25 67
e 25 68
e 25 78
e 25 86
e 25 87
e 26 67
e 26 81
e 26 85
e 26 90
e 26 99
e 27 28
e 27 36
e 27 38
e 27 46
e 27 64
e 27 67
e 27 69
e 27 78
e 27 82
e 27 83
e 27 89
e 28 36
e 28 45
e 28 48
e 28 71
e 28 79
e 28 93
e 29 49
e 29 51
e 29 76
e 29 85
e 29 87
e 29 97
e 30 39
e 30 43
e 30 46
e 30 50
e 30 58
e 30 67
e 30 70
e 30 88
e 30 100
e 31 35
e 31 36
e 31 71
e 31 74
e 31 88
e 32 41
e 32 53
e 32 57
e 32 61
e 32 66
e 32 68
e 32 70
e 32 87
e 33 43
e 33 50
e 33 53
e 33 56
e 33 62
e 33 97
e 34 51
e 34 55
e 34 59
e 34 62
e 34 63
e 34 67
e 35 61
e 35 83
e 35 94
e 36 42
e 36 59
e 37 55
e 37 61
e 37 62
e 37 89
e 37 92
e 37 94
e 37 96
e 38 40
e 38 50
e 38 53
e 38 61
e 38 66
e 38 68
e 38 74
e 38 75
e 38 98
e 39 41
e 39 44
e 39 60
e 39 65
e 39 74
e 39 80
e 39 100
e 40 77
e 40 86
e 40 93
e 41 53
e 41 55
e 41 57
e 41 65
e 41 67
e 41 71
e 41 72
e 41 75
e 41 83
e 41 92
e 41 99
e 42 55
e 42 60
e 42 80
e 43 49
e 43 50
e 43 57
e 43 58
e 43 79
e 43 83
e 44 78
e 44 87
e 44 91
e 45 46
e 45 57
e 45 59
e 45 61
e 45 73
e 45 91
e 45 99
e 46 56
e 46 74
e 46 80
e 47 49
e 47 51
e 47 52
e 47 56
e 47 58
e 47 60
e 48 49
e 48 60
e 48 62
e 48 63
e 48 77
e 49 54
e 49 57
e 49 75
e 49 86
e 49 90
e 49 99
e 50 55
e 50 59
e 50 68
e 50 85
e 51 55
e 51 66
e 51 74
e 51 79
e 52 56
e 52 74
e 52 76
e 53 64
e 53 65
e 53 78
e 53 81
e 53 99
e 54 55
e 54 61
e 54 73
e 54 85
e 54 94
e 55 56
e 55 59
e 55 61
e 55 65
e 55 67
e 55 68
e 55 72
e 55 91
e 55 96
e 55 99
e 56 71
e 56 81
e 56 89
e 56 94
e 56 96
e 57 58
e 57 67
e 57 75
e 57 76
e 57 78
e 58 61
e 58 70
e 58 72
e 58 73
e 58 78
e 58 82
e 58 86
e 58 87
e 58 98
e 59 67
e 59 68
e 59 92
e 60 84
e 60 88
e 60 89
e 60 90
e 60 94
e 61 85
e 61 91
e 62 84
e 62 98
e 63 67
e 63 81
e 63 100
e 64 89
e 65 66
e 65 73
e 65 94
e 65 97
e 67 69
e 68 82
e 69 78
e 69 80
e 69 81
e 69 95
e 70 81
e 70 82
e 70 95
e 71 74
e 72 80
e 72 82
e 72 96
e 73 75
e 73 92
e 73 93
e 74 75
e 74 94
e 74 97
e 75 86
e 75 93
e 76 82
e 76 86
e 77 91
e 77 97
e 78 84
e 78 93
e 79 87
e 79 95
e 79 97
e 80 100
e 82 83
e 82 89
e 83 88
e 83 94
e 86 89
e 86 90
e 87 93
e 89 100
e 90 99
e 90 100
e 92 94
e 93 96
